p wcnf 274 92 1
1 -1 12 
1 -2 13 
1 -3 14 
1 -4 15 
1 -5 16 
1 -6 17 
1 -7 18 
1 -8 19 
1 -9 20 
1 -10 21 
1 -11 22 
1 -23 1 
1 -24 1 
1 -25 1 
1 -26 1 
1 -27 1 
1 -28 1 
1 -29 1 
1 -30 1 
1 -31 1 
1 -32 1 
1 -33 1 
1 -23 34 
1 -23 35 
1 -23 36 
1 -23 37 
1 -23 38 
1 -23 39 
1 -23 40 
1 -23 41 
1 -23 42 
1 -23 43 
1 -24 35 
1 -24 36 
1 -24 37 
1 -24 38 
1 -24 39 
1 -24 40 
1 -24 41 
1 -24 42 
1 -24 43 
1 -24 44 
1 -25 36 
1 -25 37 
1 -25 38 
1 -25 39 
1 -25 40 
1 -25 41 
1 -25 42 
1 -25 43 
1 -25 44 
1 -25 45 
1 -26 37 
1 -26 38 
1 -26 39 
1 -26 40 
1 -26 41 
1 -26 42 
1 -26 43 
1 -26 44 
1 -26 45 
1 -26 46 
1 -27 38 
1 -27 39 
1 -27 40 
1 -27 41 
1 -27 42 
1 -27 43 
1 -27 44 
1 -27 45 
1 -27 46 
1 -27 47 
1 -28 39 
1 -28 40 
1 -28 41 
1 -28 42 
1 -28 43 
1 -28 44 
1 -28 45 
1 -28 46 
1 -28 47 
1 -28 48 
1 -29 40 
1 -29 41 
1 -29 42 
1 -29 43 
1 -29 44 
1 -29 45 
1 -29 46 
1 -29 47 
1 -29 48 
1 -29 49 
1 -30 41 
1 -30 42 
1 -30 43 
1 -30 44 
1 -30 45 
1 -30 46 
1 -30 47 
1 -30 48 
1 -30 49 
1 -30 50 
1 -31 42 
1 -31 43 
1 -31 44 
1 -31 45 
1 -31 46 
1 -31 47 
1 -31 48 
1 -31 49 
1 -31 50 
1 -31 51 
1 -32 43 
1 -32 44 
1 -32 45 
1 -32 46 
1 -32 47 
1 -32 48 
1 -32 49 
1 -32 50 
1 -32 51 
1 -32 52 
1 -33 44 
1 -33 45 
1 -33 46 
1 -33 47 
1 -33 48 
1 -33 49 
1 -33 50 
1 -33 51 
1 -33 52 
1 -33 53 
1 -54 1 
1 -55 1 
1 -56 1 
1 -57 1 
1 -58 1 
1 -59 1 
1 -60 1 
1 -61 1 
1 -62 1 
1 -63 1 
1 -64 1 
1 -54 65 
1 -54 66 
1 -54 67 
1 -54 68 
1 -54 69 
1 -54 70 
1 -54 71 
1 -54 72 
1 -54 73 
1 -54 74 
1 -54 75 
1 -55 66 
1 -55 67 
1 -55 68 
1 -55 69 
1 -55 70 
1 -55 71 
1 -55 72 
1 -55 73 
1 -55 74 
1 -55 75 
1 -55 76 
1 -56 67 
1 -56 68 
1 -56 69 
1 -56 70 
1 -56 71 
1 -56 72 
1 -56 73 
1 -56 74 
1 -56 75 
1 -56 76 
1 -56 77 
1 -57 68 
1 -57 69 
1 -57 70 
1 -57 71 
1 -57 72 
1 -57 73 
1 -57 74 
1 -57 75 
1 -57 76 
1 -57 77 
1 -57 78 
1 -58 69 
1 -58 70 
1 -58 71 
1 -58 72 
1 -58 73 
1 -58 74 
1 -58 75 
1 -58 76 
1 -58 77 
1 -58 78 
1 -58 79 
1 -59 70 
1 -59 71 
1 -59 72 
1 -59 73 
1 -59 74 
1 -59 75 
1 -59 76 
1 -59 77 
1 -59 78 
1 -59 79 
1 -59 80 
1 -60 71 
1 -60 72 
1 -60 73 
1 -60 74 
1 -60 75 
1 -60 76 
1 -60 77 
1 -60 78 
1 -60 79 
1 -60 80 
1 -60 81 
1 -61 72 
1 -61 73 
1 -61 74 
1 -61 75 
1 -61 76 
1 -61 77 
1 -61 78 
1 -61 79 
1 -61 80 
1 -61 81 
1 -61 82 
1 -62 73 
1 -62 74 
1 -62 75 
1 -62 76 
1 -62 77 
1 -62 78 
1 -62 79 
1 -62 80 
1 -62 81 
1 -62 82 
1 -62 83 
1 -63 74 
1 -63 75 
1 -63 76 
1 -63 77 
1 -63 78 
1 -63 79 
1 -63 80 
1 -63 81 
1 -63 82 
1 -63 83 
1 -63 84 
1 -64 75 
1 -64 76 
1 -64 77 
1 -64 78 
1 -64 79 
1 -64 80 
1 -64 81 
1 -64 82 
1 -64 83 
1 -64 84 
1 -64 85 
1 -86 23 
1 -87 23 
1 -86 88 
1 -86 89 
1 -87 89 
1 -87 90 
1 -91 54 86 
1 -91 92 
1 23 24 25 26 27 28 29 30 31 32 33 54 55 56 57 58 59 60 61 62 63 64 
1 23 24 25 26 27 28 29 30 31 32 33 54 55 56 57 58 59 60 61 62 63 64 86 87 
1 92 
